data/lp_files/q3/72_1.lp
\ Model foo
\ LP format - for model browsing. Use MPS format to capture full model detail.
Minimize
  z
Subject To
 allocateEach[1]: x[1,1] + x[2,1] + x[3,1] + x[4,1] = 1
 allocateEach[2]: x[1,2] + x[2,2] + x[3,2] + x[4,2] = 1
 allocateEach[3]: x[1,3] + x[2,3] + x[3,3] + x[4,3] = 1
 allocateEach[4]: x[1,4] + x[2,4] + x[3,4] + x[4,4] = 1
 allocateEach[5]: x[1,5] + x[2,5] + x[3,5] + x[4,5] = 1
 allocateEach[6]: x[1,6] + x[2,6] + x[3,6] + x[4,6] = 1
 allocateEach[7]: x[1,7] + x[2,7] + x[3,7] + x[4,7] = 1
 allocateEach[8]: x[1,8] + x[2,8] + x[3,8] + x[4,8] = 1
 allocateEach[9]: x[1,9] + x[2,9] + x[3,9] + x[4,9] = 1
 allocateEach[10]: x[1,10] + x[2,10] + x[3,10] + x[4,10] = 1
 allocateEach[11]: x[1,11] + x[2,11] + x[3,11] + x[4,11] = 1
 allocateEach[12]: x[1,12] + x[2,12] + x[3,12] + x[4,12] = 1
 allocateAllCash: cashProportion[1] + cashProportion[2] + cashProportion[3]
   + cashProportion[4] = 1
 findWorstP[1,2]: z + 0.0134593124983176 cashProportion[1]
   - 0.0134593124983176 cashProportion[2] + 0.1121564510484804 x[1,1]
   + 0.059503620555062 x[1,2] + 0.1146598831731675 x[1,3]
   + 0.0533796333683275 x[1,4] + 0.104511561549436 x[1,5]
   + 0.0320735416834908 x[1,6] + 0.1068669412366416 x[1,7]
   + 0.0546582680556677 x[1,8] + 0.1194648577350669 x[1,9]
   + 0.0341058978707368 x[1,10] + 0.083999569302 x[1,11]
   + 0.1111604619236049 x[1,12] - 0.1121564510484804 x[2,1]
   - 0.059503620555062 x[2,2] - 0.1146598831731675 x[2,3]
   - 0.0533796333683275 x[2,4] - 0.104511561549436 x[2,5]
   - 0.0320735416834908 x[2,6] - 0.1068669412366416 x[2,7]
   - 0.0546582680556677 x[2,8] - 0.1194648577350669 x[2,9]
   - 0.0341058978707368 x[2,10] - 0.083999569302 x[2,11]
   - 0.1111604619236049 x[2,12] >= 0
 findWorstP[1,3]: z + 0.0134593124983176 cashProportion[1]
   - 0.0134593124983176 cashProportion[3] + 0.1121564510484804 x[1,1]
   + 0.059503620555062 x[1,2] + 0.1146598831731675 x[1,3]
   + 0.0533796333683275 x[1,4] + 0.104511561549436 x[1,5]
   + 0.0320735416834908 x[1,6] + 0.1068669412366416 x[1,7]
   + 0.0546582680556677 x[1,8] + 0.1194648577350669 x[1,9]
   + 0.0341058978707368 x[1,10] + 0.083999569302 x[1,11]
   + 0.1111604619236049 x[1,12] - 0.1121564510484804 x[3,1]
   - 0.059503620555062 x[3,2] - 0.1146598831731675 x[3,3]
   - 0.0533796333683275 x[3,4] - 0.104511561549436 x[3,5]
   - 0.0320735416834908 x[3,6] - 0.1068669412366416 x[3,7]
   - 0.0546582680556677 x[3,8] - 0.1194648577350669 x[3,9]
   - 0.0341058978707368 x[3,10] - 0.083999569302 x[3,11]
   - 0.1111604619236049 x[3,12] >= 0
 findWorstP[1,4]: z + 0.0134593124983176 cashProportion[1]
   - 0.0134593124983176 cashProportion[4] + 0.1121564510484804 x[1,1]
   + 0.059503620555062 x[1,2] + 0.1146598831731675 x[1,3]
   + 0.0533796333683275 x[1,4] + 0.104511561549436 x[1,5]
   + 0.0320735416834908 x[1,6] + 0.1068669412366416 x[1,7]
   + 0.0546582680556677 x[1,8] + 0.1194648577350669 x[1,9]
   + 0.0341058978707368 x[1,10] + 0.083999569302 x[1,11]
   + 0.1111604619236049 x[1,12] - 0.1121564510484804 x[4,1]
   - 0.059503620555062 x[4,2] - 0.1146598831731675 x[4,3]
   - 0.0533796333683275 x[4,4] - 0.104511561549436 x[4,5]
   - 0.0320735416834908 x[4,6] - 0.1068669412366416 x[4,7]
   - 0.0546582680556677 x[4,8] - 0.1194648577350669 x[4,9]
   - 0.0341058978707368 x[4,10] - 0.083999569302 x[4,11]
   - 0.1111604619236049 x[4,12] >= 0
 findWorstP[2,1]: z - 0.0179022180848207 cashProportion[1]
   + 0.0179022180848207 cashProportion[2] - 0.036144578313253 x[1,1]
   - 0.1355913997744321 x[1,2] - 0.0932526540038311 x[1,3]
   - 0.1709661827100378 x[1,4] - 0.1218783007214594 x[1,5]
   - 0.0961707155516569 x[1,6] - 0.0520059435364042 x[1,7]
   - 0.0150915698455039 x[1,8] - 0.0215900750102938 x[1,9]
   - 0.0975133819080184 x[1,10] - 0.1222542473012407 x[1,11]
   - 0.0196387332390483 x[1,12] + 0.036144578313253 x[2,1]
   + 0.1355913997744321 x[2,2] + 0.0932526540038311 x[2,3]
   + 0.1709661827100378 x[2,4] + 0.1218783007214594 x[2,5]
   + 0.0961707155516569 x[2,6] + 0.0520059435364042 x[2,7]
   + 0.0150915698455039 x[2,8] + 0.0215900750102938 x[2,9]
   + 0.0975133819080184 x[2,10] + 0.1222542473012407 x[2,11]
   + 0.0196387332390483 x[2,12] >= 0
 findWorstP[2,3]: z + 0.0179022180848207 cashProportion[2]
   - 0.0179022180848207 cashProportion[3] + 0.036144578313253 x[2,1]
   + 0.1355913997744321 x[2,2] + 0.0932526540038311 x[2,3]
   + 0.1709661827100378 x[2,4] + 0.1218783007214594 x[2,5]
   + 0.0961707155516569 x[2,6] + 0.0520059435364042 x[2,7]
   + 0.0150915698455039 x[2,8] + 0.0215900750102938 x[2,9]
   + 0.0975133819080184 x[2,10] + 0.1222542473012407 x[2,11]
   + 0.0196387332390483 x[2,12] - 0.036144578313253 x[3,1]
   - 0.1355913997744321 x[3,2] - 0.0932526540038311 x[3,3]
   - 0.1709661827100378 x[3,4] - 0.1218783007214594 x[3,5]
   - 0.0961707155516569 x[3,6] - 0.0520059435364042 x[3,7]
   - 0.0150915698455039 x[3,8] - 0.0215900750102938 x[3,9]
   - 0.0975133819080184 x[3,10] - 0.1222542473012407 x[3,11]
   - 0.0196387332390483 x[3,12] >= 0
 findWorstP[2,4]: z + 0.0179022180848207 cashProportion[2]
   - 0.0179022180848207 cashProportion[4] + 0.036144578313253 x[2,1]
   + 0.1355913997744321 x[2,2] + 0.0932526540038311 x[2,3]
   + 0.1709661827100378 x[2,4] + 0.1218783007214594 x[2,5]
   + 0.0961707155516569 x[2,6] + 0.0520059435364042 x[2,7]
   + 0.0150915698455039 x[2,8] + 0.0215900750102938 x[2,9]
   + 0.0975133819080184 x[2,10] + 0.1222542473012407 x[2,11]
   + 0.0196387332390483 x[2,12] - 0.036144578313253 x[4,1]
   - 0.1355913997744321 x[4,2] - 0.0932526540038311 x[4,3]
   - 0.1709661827100378 x[4,4] - 0.1218783007214594 x[4,5]
   - 0.0961707155516569 x[4,6] - 0.0520059435364042 x[4,7]
   - 0.0150915698455039 x[4,8] - 0.0215900750102938 x[4,9]
   - 0.0975133819080184 x[4,10] - 0.1222542473012407 x[4,11]
   - 0.0196387332390483 x[4,12] >= 0
 findWorstP[3,1]: z - 0.0205414732344604 cashProportion[1]
   + 0.0205414732344604 cashProportion[3] - 0.0320446982457582 x[1,1]
   - 0.0677046957807814 x[1,2] - 0.0425413910685674 x[1,3]
   - 0.1004272626432768 x[1,4] - 0.0927242101803541 x[1,5]
   - 0.125693274721663 x[1,6] - 0.0538186598742862 x[1,7]
   - 0.0609876340331129 x[1,8] - 0.0407953658436383 x[1,9]
   - 0.2014502280103529 x[1,10] - 0.0517028881311368 x[1,11]
   - 0.1095682182326116 x[1,12] + 0.0320446982457582 x[3,1]
   + 0.0677046957807814 x[3,2] + 0.0425413910685674 x[3,3]
   + 0.1004272626432768 x[3,4] + 0.0927242101803541 x[3,5]
   + 0.125693274721663 x[3,6] + 0.0538186598742862 x[3,7]
   + 0.0609876340331129 x[3,8] + 0.0407953658436383 x[3,9]
   + 0.2014502280103529 x[3,10] + 0.0517028881311368 x[3,11]
   + 0.1095682182326116 x[3,12] >= 0
 findWorstP[3,2]: z - 0.0205414732344604 cashProportion[2]
   + 0.0205414732344604 cashProportion[3] - 0.0320446982457582 x[2,1]
   - 0.0677046957807814 x[2,2] - 0.0425413910685674 x[2,3]
   - 0.1004272626432768 x[2,4] - 0.0927242101803541 x[2,5]
   - 0.125693274721663 x[2,6] - 0.0538186598742862 x[2,7]
   - 0.0609876340331129 x[2,8] - 0.0407953658436383 x[2,9]
   - 0.2014502280103529 x[2,10] - 0.0517028881311368 x[2,11]
   - 0.1095682182326116 x[2,12] + 0.0320446982457582 x[3,1]
   + 0.0677046957807814 x[3,2] + 0.0425413910685674 x[3,3]
   + 0.1004272626432768 x[3,4] + 0.0927242101803541 x[3,5]
   + 0.125693274721663 x[3,6] + 0.0538186598742862 x[3,7]
   + 0.0609876340331129 x[3,8] + 0.0407953658436383 x[3,9]
   + 0.2014502280103529 x[3,10] + 0.0517028881311368 x[3,11]
   + 0.1095682182326116 x[3,12] >= 0
 findWorstP[3,4]: z + 0.0205414732344604 cashProportion[3]
   - 0.0205414732344604 cashProportion[4] + 0.0320446982457582 x[3,1]
   + 0.0677046957807814 x[3,2] + 0.0425413910685674 x[3,3]
   + 0.1004272626432768 x[3,4] + 0.0927242101803541 x[3,5]
   + 0.125693274721663 x[3,6] + 0.0538186598742862 x[3,7]
   + 0.0609876340331129 x[3,8] + 0.0407953658436383 x[3,9]
   + 0.2014502280103529 x[3,10] + 0.0517028881311368 x[3,11]
   + 0.1095682182326116 x[3,12] - 0.0320446982457582 x[4,1]
   - 0.0677046957807814 x[4,2] - 0.0425413910685674 x[4,3]
   - 0.1004272626432768 x[4,4] - 0.0927242101803541 x[4,5]
   - 0.125693274721663 x[4,6] - 0.0538186598742862 x[4,7]
   - 0.0609876340331129 x[4,8] - 0.0407953658436383 x[4,9]
   - 0.2014502280103529 x[4,10] - 0.0517028881311368 x[4,11]
   - 0.1095682182326116 x[4,12] >= 0
 findWorstP[4,1]: z - 0.015297069081564 cashProportion[1]
   + 0.015297069081564 cashProportion[4] - 0.1408860062412042 x[1,1]
   - 0.1424463072875237 x[1,2] - 0.0752156886740501 x[1,3]
   - 0.1509361806277917 x[1,4] - 0.0165820228844153 x[1,5]
   - 0.015189989597993 x[1,6] - 0.05164290521936 x[1,7]
   - 0.0847457627118644 x[1,8] - 0.1085632992718595 x[1,9]
   - 0.0623508535764547 x[1,10] - 0.00494095331334516 x[1,11]
   - 0.1312029615125742 x[1,12] + 0.1408860062412042 x[4,1]
   + 0.1424463072875237 x[4,2] + 0.0752156886740501 x[4,3]
   + 0.1509361806277917 x[4,4] + 0.0165820228844153 x[4,5]
   + 0.015189989597993 x[4,6] + 0.05164290521936 x[4,7]
   + 0.0847457627118644 x[4,8] + 0.1085632992718595 x[4,9]
   + 0.0623508535764547 x[4,10] + 0.00494095331334516 x[4,11]
   + 0.1312029615125742 x[4,12] >= 0
 findWorstP[4,2]: z - 0.015297069081564 cashProportion[2]
   + 0.015297069081564 cashProportion[4] - 0.1408860062412042 x[2,1]
   - 0.1424463072875237 x[2,2] - 0.0752156886740501 x[2,3]
   - 0.1509361806277917 x[2,4] - 0.0165820228844153 x[2,5]
   - 0.015189989597993 x[2,6] - 0.05164290521936 x[2,7]
   - 0.0847457627118644 x[2,8] - 0.1085632992718595 x[2,9]
   - 0.0623508535764547 x[2,10] - 0.00494095331334516 x[2,11]
   - 0.1312029615125742 x[2,12] + 0.1408860062412042 x[4,1]
   + 0.1424463072875237 x[4,2] + 0.0752156886740501 x[4,3]
   + 0.1509361806277917 x[4,4] + 0.0165820228844153 x[4,5]
   + 0.015189989597993 x[4,6] + 0.05164290521936 x[4,7]
   + 0.0847457627118644 x[4,8] + 0.1085632992718595 x[4,9]
   + 0.0623508535764547 x[4,10] + 0.00494095331334516 x[4,11]
   + 0.1312029615125742 x[4,12] >= 0
 findWorstP[4,3]: z - 0.015297069081564 cashProportion[3]
   + 0.015297069081564 cashProportion[4] - 0.1408860062412042 x[3,1]
   - 0.1424463072875237 x[3,2] - 0.0752156886740501 x[3,3]
   - 0.1509361806277917 x[3,4] - 0.0165820228844153 x[3,5]
   - 0.015189989597993 x[3,6] - 0.05164290521936 x[3,7]
   - 0.0847457627118644 x[3,8] - 0.1085632992718595 x[3,9]
   - 0.0623508535764547 x[3,10] - 0.00494095331334516 x[3,11]
   - 0.1312029615125742 x[3,12] + 0.1408860062412042 x[4,1]
   + 0.1424463072875237 x[4,2] + 0.0752156886740501 x[4,3]
   + 0.1509361806277917 x[4,4] + 0.0165820228844153 x[4,5]
   + 0.015189989597993 x[4,6] + 0.05164290521936 x[4,7]
   + 0.0847457627118644 x[4,8] + 0.1085632992718595 x[4,9]
   + 0.0623508535764547 x[4,10] + 0.00494095331334516 x[4,11]
   + 0.1312029615125742 x[4,12] >= 0
Bounds
 z <= 1
 -infinity <= cashProportion[1] <= 1
 -infinity <= cashProportion[2] <= 1
 -infinity <= cashProportion[3] <= 1
 -infinity <= cashProportion[4] <= 1
Binaries
 x[1,1] x[1,2] x[1,3] x[1,4] x[1,5] x[1,6] x[1,7] x[1,8] x[1,9] x[1,10]
 x[1,11] x[1,12] x[2,1] x[2,2] x[2,3] x[2,4] x[2,5] x[2,6] x[2,7] x[2,8]
 x[2,9] x[2,10] x[2,11] x[2,12] x[3,1] x[3,2] x[3,3] x[3,4] x[3,5] x[3,6]
 x[3,7] x[3,8] x[3,9] x[3,10] x[3,11] x[3,12] x[4,1] x[4,2] x[4,3] x[4,4]
 x[4,5] x[4,6] x[4,7] x[4,8] x[4,9] x[4,10] x[4,11] x[4,12]
End
