data/mps_files/q3/72_1.mps
NAME foo
ROWS
 N  OBJ
 E  allocateEach[1]
 E  allocateEach[2]
 E  allocateEach[3]
 E  allocateEach[4]
 E  allocateEach[5]
 E  allocateEach[6]
 E  allocateEach[7]
 E  allocateEach[8]
 E  allocateEach[9]
 E  allocateEach[10]
 E  allocateEach[11]
 E  allocateEach[12]
 E  allocateAllCash
 G  findWorstP[1,2]
 G  findWorstP[1,3]
 G  findWorstP[1,4]
 G  findWorstP[2,1]
 G  findWorstP[2,3]
 G  findWorstP[2,4]
 G  findWorstP[3,1]
 G  findWorstP[3,2]
 G  findWorstP[3,4]
 G  findWorstP[4,1]
 G  findWorstP[4,2]
 G  findWorstP[4,3]
COLUMNS
    z         OBJ       1
    z         findWorstP[1,2]  1
    z         findWorstP[1,3]  1
    z         findWorstP[1,4]  1
    z         findWorstP[2,1]  1
    z         findWorstP[2,3]  1
    z         findWorstP[2,4]  1
    z         findWorstP[3,1]  1
    z         findWorstP[3,2]  1
    z         findWorstP[3,4]  1
    z         findWorstP[4,1]  1
    z         findWorstP[4,2]  1
    z         findWorstP[4,3]  1
    cashProportion[1]  allocateAllCash  1
    cashProportion[1]  findWorstP[1,2]  1.3459312498317586e-02
    cashProportion[1]  findWorstP[1,3]  1.3459312498317586e-02
    cashProportion[1]  findWorstP[1,4]  1.3459312498317586e-02
    cashProportion[1]  findWorstP[2,1]  -1.7902218084820714e-02
    cashProportion[1]  findWorstP[3,1]  -2.0541473234460376e-02
    cashProportion[1]  findWorstP[4,1]  -1.5297069081563973e-02
    cashProportion[2]  allocateAllCash  1
    cashProportion[2]  findWorstP[1,2]  -1.3459312498317586e-02
    cashProportion[2]  findWorstP[2,1]  1.7902218084820714e-02
    cashProportion[2]  findWorstP[2,3]  1.7902218084820714e-02
    cashProportion[2]  findWorstP[2,4]  1.7902218084820714e-02
    cashProportion[2]  findWorstP[3,2]  -2.0541473234460376e-02
    cashProportion[2]  findWorstP[4,2]  -1.5297069081563973e-02
    cashProportion[3]  allocateAllCash  1
    cashProportion[3]  findWorstP[1,3]  -1.3459312498317586e-02
    cashProportion[3]  findWorstP[2,3]  -1.7902218084820714e-02
    cashProportion[3]  findWorstP[3,1]  2.0541473234460376e-02
    cashProportion[3]  findWorstP[3,2]  2.0541473234460376e-02
    cashProportion[3]  findWorstP[3,4]  2.0541473234460376e-02
    cashProportion[3]  findWorstP[4,3]  -1.5297069081563973e-02
    cashProportion[4]  allocateAllCash  1
    cashProportion[4]  findWorstP[1,4]  -1.3459312498317586e-02
    cashProportion[4]  findWorstP[2,4]  -1.7902218084820714e-02
    cashProportion[4]  findWorstP[3,4]  -2.0541473234460376e-02
    cashProportion[4]  findWorstP[4,1]  1.5297069081563973e-02
    cashProportion[4]  findWorstP[4,2]  1.5297069081563973e-02
    cashProportion[4]  findWorstP[4,3]  1.5297069081563973e-02
    MARKER    'MARKER'                 'INTORG'
    x[1,1]    allocateEach[1]  1
    x[1,1]    findWorstP[1,2]  1.1215645104848045e-01
    x[1,1]    findWorstP[1,3]  1.1215645104848045e-01
    x[1,1]    findWorstP[1,4]  1.1215645104848045e-01
    x[1,1]    findWorstP[2,1]  -3.6144578313253024e-02
    x[1,1]    findWorstP[3,1]  -3.2044698245758188e-02
    x[1,1]    findWorstP[4,1]  -1.4088600624120418e-01
    x[1,2]    allocateEach[2]  1
    x[1,2]    findWorstP[1,2]  5.9503620555062045e-02
    x[1,2]    findWorstP[1,3]  5.9503620555062045e-02
    x[1,2]    findWorstP[1,4]  5.9503620555062045e-02
    x[1,2]    findWorstP[2,1]  -1.3559139977443208e-01
    x[1,2]    findWorstP[3,1]  -0.0677046957807814
    x[1,2]    findWorstP[4,1]  -1.4244630728752369e-01
    x[1,3]    allocateEach[3]  1
    x[1,3]    findWorstP[1,2]  1.1465988317316751e-01
    x[1,3]    findWorstP[1,3]  1.1465988317316751e-01
    x[1,3]    findWorstP[1,4]  1.1465988317316751e-01
    x[1,3]    findWorstP[2,1]  -0.0932526540038311
    x[1,3]    findWorstP[3,1]  -4.2541391068567441e-02
    x[1,3]    findWorstP[4,1]  -7.5215688674050055e-02
    x[1,4]    allocateEach[4]  1
    x[1,4]    findWorstP[1,2]  5.3379633368327545e-02
    x[1,4]    findWorstP[1,3]  5.3379633368327545e-02
    x[1,4]    findWorstP[1,4]  5.3379633368327545e-02
    x[1,4]    findWorstP[2,1]  -1.7096618271003783e-01
    x[1,4]    findWorstP[3,1]  -1.0042726264327677e-01
    x[1,4]    findWorstP[4,1]  -1.5093618062779171e-01
    x[1,5]    allocateEach[5]  1
    x[1,5]    findWorstP[1,2]  1.0451156154943604e-01
    x[1,5]    findWorstP[1,3]  1.0451156154943604e-01
    x[1,5]    findWorstP[1,4]  1.0451156154943604e-01
    x[1,5]    findWorstP[2,1]  -1.2187830072145941e-01
    x[1,5]    findWorstP[3,1]  -9.2724210180354136e-02
    x[1,5]    findWorstP[4,1]  -1.6582022884415345e-02
    x[1,6]    allocateEach[6]  1
    x[1,6]    findWorstP[1,2]  3.2073541683490810e-02
    x[1,6]    findWorstP[1,3]  3.2073541683490810e-02
    x[1,6]    findWorstP[1,4]  3.2073541683490810e-02
    x[1,6]    findWorstP[2,1]  -9.6170715551656877e-02
    x[1,6]    findWorstP[3,1]  -1.2569327472166303e-01
    x[1,6]    findWorstP[4,1]  -1.5189989597993024e-02
    x[1,7]    allocateEach[7]  1
    x[1,7]    findWorstP[1,2]  1.0686694123664163e-01
    x[1,7]    findWorstP[1,3]  1.0686694123664163e-01
    x[1,7]    findWorstP[1,4]  1.0686694123664163e-01
    x[1,7]    findWorstP[2,1]  -5.2005943536404170e-02
    x[1,7]    findWorstP[3,1]  -5.3818659874286183e-02
    x[1,7]    findWorstP[4,1]  -5.1642905219359971e-02
    x[1,8]    allocateEach[8]  1
    x[1,8]    findWorstP[1,2]  5.4658268055667716e-02
    x[1,8]    findWorstP[1,3]  5.4658268055667716e-02
    x[1,8]    findWorstP[1,4]  5.4658268055667716e-02
    x[1,8]    findWorstP[2,1]  -1.5091569845503862e-02
    x[1,8]    findWorstP[3,1]  -6.0987634033112852e-02
    x[1,8]    findWorstP[4,1]  -0.0847457627118644
    x[1,9]    allocateEach[9]  1
    x[1,9]    findWorstP[1,2]  1.1946485773506688e-01
    x[1,9]    findWorstP[1,3]  1.1946485773506688e-01
    x[1,9]    findWorstP[1,4]  1.1946485773506688e-01
    x[1,9]    findWorstP[2,1]  -2.1590075010293780e-02
    x[1,9]    findWorstP[3,1]  -4.0795365843638305e-02
    x[1,9]    findWorstP[4,1]  -1.0856329927185951e-01
    x[1,10]   allocateEach[10]  1
    x[1,10]   findWorstP[1,2]  3.4105897870736764e-02
    x[1,10]   findWorstP[1,3]  3.4105897870736764e-02
    x[1,10]   findWorstP[1,4]  3.4105897870736764e-02
    x[1,10]   findWorstP[2,1]  -9.7513381908018421e-02
    x[1,10]   findWorstP[3,1]  -2.0145022801035289e-01
    x[1,10]   findWorstP[4,1]  -6.2350853576454750e-02
    x[1,11]   allocateEach[11]  1
    x[1,11]   findWorstP[1,2]  8.3999569302000046e-02
    x[1,11]   findWorstP[1,3]  8.3999569302000046e-02
    x[1,11]   findWorstP[1,4]  8.3999569302000046e-02
    x[1,11]   findWorstP[2,1]  -1.2225424730124065e-01
    x[1,11]   findWorstP[3,1]  -5.1702888131136757e-02
    x[1,11]   findWorstP[4,1]  -4.9409533133451628e-03
    x[1,12]   allocateEach[12]  1
    x[1,12]   findWorstP[1,2]  1.1116046192360493e-01
    x[1,12]   findWorstP[1,3]  1.1116046192360493e-01
    x[1,12]   findWorstP[1,4]  1.1116046192360493e-01
    x[1,12]   findWorstP[2,1]  -1.9638733239048325e-02
    x[1,12]   findWorstP[3,1]  -1.0956821823261163e-01
    x[1,12]   findWorstP[4,1]  -1.3120296151257418e-01
    x[2,1]    allocateEach[1]  1
    x[2,1]    findWorstP[1,2]  -1.1215645104848045e-01
    x[2,1]    findWorstP[2,1]  3.6144578313253024e-02
    x[2,1]    findWorstP[2,3]  3.6144578313253024e-02
    x[2,1]    findWorstP[2,4]  3.6144578313253024e-02
    x[2,1]    findWorstP[3,2]  -3.2044698245758188e-02
    x[2,1]    findWorstP[4,2]  -1.4088600624120418e-01
    x[2,2]    allocateEach[2]  1
    x[2,2]    findWorstP[1,2]  -5.9503620555062045e-02
    x[2,2]    findWorstP[2,1]  1.3559139977443208e-01
    x[2,2]    findWorstP[2,3]  1.3559139977443208e-01
    x[2,2]    findWorstP[2,4]  1.3559139977443208e-01
    x[2,2]    findWorstP[3,2]  -0.0677046957807814
    x[2,2]    findWorstP[4,2]  -1.4244630728752369e-01
    x[2,3]    allocateEach[3]  1
    x[2,3]    findWorstP[1,2]  -1.1465988317316751e-01
    x[2,3]    findWorstP[2,1]  0.0932526540038311
    x[2,3]    findWorstP[2,3]  0.0932526540038311
    x[2,3]    findWorstP[2,4]  0.0932526540038311
    x[2,3]    findWorstP[3,2]  -4.2541391068567441e-02
    x[2,3]    findWorstP[4,2]  -7.5215688674050055e-02
    x[2,4]    allocateEach[4]  1
    x[2,4]    findWorstP[1,2]  -5.3379633368327545e-02
    x[2,4]    findWorstP[2,1]  1.7096618271003783e-01
    x[2,4]    findWorstP[2,3]  1.7096618271003783e-01
    x[2,4]    findWorstP[2,4]  1.7096618271003783e-01
    x[2,4]    findWorstP[3,2]  -1.0042726264327677e-01
    x[2,4]    findWorstP[4,2]  -1.5093618062779171e-01
    x[2,5]    allocateEach[5]  1
    x[2,5]    findWorstP[1,2]  -1.0451156154943604e-01
    x[2,5]    findWorstP[2,1]  1.2187830072145941e-01
    x[2,5]    findWorstP[2,3]  1.2187830072145941e-01
    x[2,5]    findWorstP[2,4]  1.2187830072145941e-01
    x[2,5]    findWorstP[3,2]  -9.2724210180354136e-02
    x[2,5]    findWorstP[4,2]  -1.6582022884415345e-02
    x[2,6]    allocateEach[6]  1
    x[2,6]    findWorstP[1,2]  -3.2073541683490810e-02
    x[2,6]    findWorstP[2,1]  9.6170715551656877e-02
    x[2,6]    findWorstP[2,3]  9.6170715551656877e-02
    x[2,6]    findWorstP[2,4]  9.6170715551656877e-02
    x[2,6]    findWorstP[3,2]  -1.2569327472166303e-01
    x[2,6]    findWorstP[4,2]  -1.5189989597993024e-02
    x[2,7]    allocateEach[7]  1
    x[2,7]    findWorstP[1,2]  -1.0686694123664163e-01
    x[2,7]    findWorstP[2,1]  5.2005943536404170e-02
    x[2,7]    findWorstP[2,3]  5.2005943536404170e-02
    x[2,7]    findWorstP[2,4]  5.2005943536404170e-02
    x[2,7]    findWorstP[3,2]  -5.3818659874286183e-02
    x[2,7]    findWorstP[4,2]  -5.1642905219359971e-02
    x[2,8]    allocateEach[8]  1
    x[2,8]    findWorstP[1,2]  -5.4658268055667716e-02
    x[2,8]    findWorstP[2,1]  1.5091569845503862e-02
    x[2,8]    findWorstP[2,3]  1.5091569845503862e-02
    x[2,8]    findWorstP[2,4]  1.5091569845503862e-02
    x[2,8]    findWorstP[3,2]  -6.0987634033112852e-02
    x[2,8]    findWorstP[4,2]  -0.0847457627118644
    x[2,9]    allocateEach[9]  1
    x[2,9]    findWorstP[1,2]  -1.1946485773506688e-01
    x[2,9]    findWorstP[2,1]  2.1590075010293780e-02
    x[2,9]    findWorstP[2,3]  2.1590075010293780e-02
    x[2,9]    findWorstP[2,4]  2.1590075010293780e-02
    x[2,9]    findWorstP[3,2]  -4.0795365843638305e-02
    x[2,9]    findWorstP[4,2]  -1.0856329927185951e-01
    x[2,10]   allocateEach[10]  1
    x[2,10]   findWorstP[1,2]  -3.4105897870736764e-02
    x[2,10]   findWorstP[2,1]  9.7513381908018421e-02
    x[2,10]   findWorstP[2,3]  9.7513381908018421e-02
    x[2,10]   findWorstP[2,4]  9.7513381908018421e-02
    x[2,10]   findWorstP[3,2]  -2.0145022801035289e-01
    x[2,10]   findWorstP[4,2]  -6.2350853576454750e-02
    x[2,11]   allocateEach[11]  1
    x[2,11]   findWorstP[1,2]  -8.3999569302000046e-02
    x[2,11]   findWorstP[2,1]  1.2225424730124065e-01
    x[2,11]   findWorstP[2,3]  1.2225424730124065e-01
    x[2,11]   findWorstP[2,4]  1.2225424730124065e-01
    x[2,11]   findWorstP[3,2]  -5.1702888131136757e-02
    x[2,11]   findWorstP[4,2]  -4.9409533133451628e-03
    x[2,12]   allocateEach[12]  1
    x[2,12]   findWorstP[1,2]  -1.1116046192360493e-01
    x[2,12]   findWorstP[2,1]  1.9638733239048325e-02
    x[2,12]   findWorstP[2,3]  1.9638733239048325e-02
    x[2,12]   findWorstP[2,4]  1.9638733239048325e-02
    x[2,12]   findWorstP[3,2]  -1.0956821823261163e-01
    x[2,12]   findWorstP[4,2]  -1.3120296151257418e-01
    x[3,1]    allocateEach[1]  1
    x[3,1]    findWorstP[1,3]  -1.1215645104848045e-01
    x[3,1]    findWorstP[2,3]  -3.6144578313253024e-02
    x[3,1]    findWorstP[3,1]  3.2044698245758188e-02
    x[3,1]    findWorstP[3,2]  3.2044698245758188e-02
    x[3,1]    findWorstP[3,4]  3.2044698245758188e-02
    x[3,1]    findWorstP[4,3]  -1.4088600624120418e-01
    x[3,2]    allocateEach[2]  1
    x[3,2]    findWorstP[1,3]  -5.9503620555062045e-02
    x[3,2]    findWorstP[2,3]  -1.3559139977443208e-01
    x[3,2]    findWorstP[3,1]  0.0677046957807814
    x[3,2]    findWorstP[3,2]  0.0677046957807814
    x[3,2]    findWorstP[3,4]  0.0677046957807814
    x[3,2]    findWorstP[4,3]  -1.4244630728752369e-01
    x[3,3]    allocateEach[3]  1
    x[3,3]    findWorstP[1,3]  -1.1465988317316751e-01
    x[3,3]    findWorstP[2,3]  -0.0932526540038311
    x[3,3]    findWorstP[3,1]  4.2541391068567441e-02
    x[3,3]    findWorstP[3,2]  4.2541391068567441e-02
    x[3,3]    findWorstP[3,4]  4.2541391068567441e-02
    x[3,3]    findWorstP[4,3]  -7.5215688674050055e-02
    x[3,4]    allocateEach[4]  1
    x[3,4]    findWorstP[1,3]  -5.3379633368327545e-02
    x[3,4]    findWorstP[2,3]  -1.7096618271003783e-01
    x[3,4]    findWorstP[3,1]  1.0042726264327677e-01
    x[3,4]    findWorstP[3,2]  1.0042726264327677e-01
    x[3,4]    findWorstP[3,4]  1.0042726264327677e-01
    x[3,4]    findWorstP[4,3]  -1.5093618062779171e-01
    x[3,5]    allocateEach[5]  1
    x[3,5]    findWorstP[1,3]  -1.0451156154943604e-01
    x[3,5]    findWorstP[2,3]  -1.2187830072145941e-01
    x[3,5]    findWorstP[3,1]  9.2724210180354136e-02
    x[3,5]    findWorstP[3,2]  9.2724210180354136e-02
    x[3,5]    findWorstP[3,4]  9.2724210180354136e-02
    x[3,5]    findWorstP[4,3]  -1.6582022884415345e-02
    x[3,6]    allocateEach[6]  1
    x[3,6]    findWorstP[1,3]  -3.2073541683490810e-02
    x[3,6]    findWorstP[2,3]  -9.6170715551656877e-02
    x[3,6]    findWorstP[3,1]  1.2569327472166303e-01
    x[3,6]    findWorstP[3,2]  1.2569327472166303e-01
    x[3,6]    findWorstP[3,4]  1.2569327472166303e-01
    x[3,6]    findWorstP[4,3]  -1.5189989597993024e-02
    x[3,7]    allocateEach[7]  1
    x[3,7]    findWorstP[1,3]  -1.0686694123664163e-01
    x[3,7]    findWorstP[2,3]  -5.2005943536404170e-02
    x[3,7]    findWorstP[3,1]  5.3818659874286183e-02
    x[3,7]    findWorstP[3,2]  5.3818659874286183e-02
    x[3,7]    findWorstP[3,4]  5.3818659874286183e-02
    x[3,7]    findWorstP[4,3]  -5.1642905219359971e-02
    x[3,8]    allocateEach[8]  1
    x[3,8]    findWorstP[1,3]  -5.4658268055667716e-02
    x[3,8]    findWorstP[2,3]  -1.5091569845503862e-02
    x[3,8]    findWorstP[3,1]  6.0987634033112852e-02
    x[3,8]    findWorstP[3,2]  6.0987634033112852e-02
    x[3,8]    findWorstP[3,4]  6.0987634033112852e-02
    x[3,8]    findWorstP[4,3]  -0.0847457627118644
    x[3,9]    allocateEach[9]  1
    x[3,9]    findWorstP[1,3]  -1.1946485773506688e-01
    x[3,9]    findWorstP[2,3]  -2.1590075010293780e-02
    x[3,9]    findWorstP[3,1]  4.0795365843638305e-02
    x[3,9]    findWorstP[3,2]  4.0795365843638305e-02
    x[3,9]    findWorstP[3,4]  4.0795365843638305e-02
    x[3,9]    findWorstP[4,3]  -1.0856329927185951e-01
    x[3,10]   allocateEach[10]  1
    x[3,10]   findWorstP[1,3]  -3.4105897870736764e-02
    x[3,10]   findWorstP[2,3]  -9.7513381908018421e-02
    x[3,10]   findWorstP[3,1]  2.0145022801035289e-01
    x[3,10]   findWorstP[3,2]  2.0145022801035289e-01
    x[3,10]   findWorstP[3,4]  2.0145022801035289e-01
    x[3,10]   findWorstP[4,3]  -6.2350853576454750e-02
    x[3,11]   allocateEach[11]  1
    x[3,11]   findWorstP[1,3]  -8.3999569302000046e-02
    x[3,11]   findWorstP[2,3]  -1.2225424730124065e-01
    x[3,11]   findWorstP[3,1]  5.1702888131136757e-02
    x[3,11]   findWorstP[3,2]  5.1702888131136757e-02
    x[3,11]   findWorstP[3,4]  5.1702888131136757e-02
    x[3,11]   findWorstP[4,3]  -4.9409533133451628e-03
    x[3,12]   allocateEach[12]  1
    x[3,12]   findWorstP[1,3]  -1.1116046192360493e-01
    x[3,12]   findWorstP[2,3]  -1.9638733239048325e-02
    x[3,12]   findWorstP[3,1]  1.0956821823261163e-01
    x[3,12]   findWorstP[3,2]  1.0956821823261163e-01
    x[3,12]   findWorstP[3,4]  1.0956821823261163e-01
    x[3,12]   findWorstP[4,3]  -1.3120296151257418e-01
    x[4,1]    allocateEach[1]  1
    x[4,1]    findWorstP[1,4]  -1.1215645104848045e-01
    x[4,1]    findWorstP[2,4]  -3.6144578313253024e-02
    x[4,1]    findWorstP[3,4]  -3.2044698245758188e-02
    x[4,1]    findWorstP[4,1]  1.4088600624120418e-01
    x[4,1]    findWorstP[4,2]  1.4088600624120418e-01
    x[4,1]    findWorstP[4,3]  1.4088600624120418e-01
    x[4,2]    allocateEach[2]  1
    x[4,2]    findWorstP[1,4]  -5.9503620555062045e-02
    x[4,2]    findWorstP[2,4]  -1.3559139977443208e-01
    x[4,2]    findWorstP[3,4]  -0.0677046957807814
    x[4,2]    findWorstP[4,1]  1.4244630728752369e-01
    x[4,2]    findWorstP[4,2]  1.4244630728752369e-01
    x[4,2]    findWorstP[4,3]  1.4244630728752369e-01
    x[4,3]    allocateEach[3]  1
    x[4,3]    findWorstP[1,4]  -1.1465988317316751e-01
    x[4,3]    findWorstP[2,4]  -0.0932526540038311
    x[4,3]    findWorstP[3,4]  -4.2541391068567441e-02
    x[4,3]    findWorstP[4,1]  7.5215688674050055e-02
    x[4,3]    findWorstP[4,2]  7.5215688674050055e-02
    x[4,3]    findWorstP[4,3]  7.5215688674050055e-02
    x[4,4]    allocateEach[4]  1
    x[4,4]    findWorstP[1,4]  -5.3379633368327545e-02
    x[4,4]    findWorstP[2,4]  -1.7096618271003783e-01
    x[4,4]    findWorstP[3,4]  -1.0042726264327677e-01
    x[4,4]    findWorstP[4,1]  1.5093618062779171e-01
    x[4,4]    findWorstP[4,2]  1.5093618062779171e-01
    x[4,4]    findWorstP[4,3]  1.5093618062779171e-01
    x[4,5]    allocateEach[5]  1
    x[4,5]    findWorstP[1,4]  -1.0451156154943604e-01
    x[4,5]    findWorstP[2,4]  -1.2187830072145941e-01
    x[4,5]    findWorstP[3,4]  -9.2724210180354136e-02
    x[4,5]    findWorstP[4,1]  1.6582022884415345e-02
    x[4,5]    findWorstP[4,2]  1.6582022884415345e-02
    x[4,5]    findWorstP[4,3]  1.6582022884415345e-02
    x[4,6]    allocateEach[6]  1
    x[4,6]    findWorstP[1,4]  -3.2073541683490810e-02
    x[4,6]    findWorstP[2,4]  -9.6170715551656877e-02
    x[4,6]    findWorstP[3,4]  -1.2569327472166303e-01
    x[4,6]    findWorstP[4,1]  1.5189989597993024e-02
    x[4,6]    findWorstP[4,2]  1.5189989597993024e-02
    x[4,6]    findWorstP[4,3]  1.5189989597993024e-02
    x[4,7]    allocateEach[7]  1
    x[4,7]    findWorstP[1,4]  -1.0686694123664163e-01
    x[4,7]    findWorstP[2,4]  -5.2005943536404170e-02
    x[4,7]    findWorstP[3,4]  -5.3818659874286183e-02
    x[4,7]    findWorstP[4,1]  5.1642905219359971e-02
    x[4,7]    findWorstP[4,2]  5.1642905219359971e-02
    x[4,7]    findWorstP[4,3]  5.1642905219359971e-02
    x[4,8]    allocateEach[8]  1
    x[4,8]    findWorstP[1,4]  -5.4658268055667716e-02
    x[4,8]    findWorstP[2,4]  -1.5091569845503862e-02
    x[4,8]    findWorstP[3,4]  -6.0987634033112852e-02
    x[4,8]    findWorstP[4,1]  0.0847457627118644
    x[4,8]    findWorstP[4,2]  0.0847457627118644
    x[4,8]    findWorstP[4,3]  0.0847457627118644
    x[4,9]    allocateEach[9]  1
    x[4,9]    findWorstP[1,4]  -1.1946485773506688e-01
    x[4,9]    findWorstP[2,4]  -2.1590075010293780e-02
    x[4,9]    findWorstP[3,4]  -4.0795365843638305e-02
    x[4,9]    findWorstP[4,1]  1.0856329927185951e-01
    x[4,9]    findWorstP[4,2]  1.0856329927185951e-01
    x[4,9]    findWorstP[4,3]  1.0856329927185951e-01
    x[4,10]   allocateEach[10]  1
    x[4,10]   findWorstP[1,4]  -3.4105897870736764e-02
    x[4,10]   findWorstP[2,4]  -9.7513381908018421e-02
    x[4,10]   findWorstP[3,4]  -2.0145022801035289e-01
    x[4,10]   findWorstP[4,1]  6.2350853576454750e-02
    x[4,10]   findWorstP[4,2]  6.2350853576454750e-02
    x[4,10]   findWorstP[4,3]  6.2350853576454750e-02
    x[4,11]   allocateEach[11]  1
    x[4,11]   findWorstP[1,4]  -8.3999569302000046e-02
    x[4,11]   findWorstP[2,4]  -1.2225424730124065e-01
    x[4,11]   findWorstP[3,4]  -5.1702888131136757e-02
    x[4,11]   findWorstP[4,1]  4.9409533133451628e-03
    x[4,11]   findWorstP[4,2]  4.9409533133451628e-03
    x[4,11]   findWorstP[4,3]  4.9409533133451628e-03
    x[4,12]   allocateEach[12]  1
    x[4,12]   findWorstP[1,4]  -1.1116046192360493e-01
    x[4,12]   findWorstP[2,4]  -1.9638733239048325e-02
    x[4,12]   findWorstP[3,4]  -1.0956821823261163e-01
    x[4,12]   findWorstP[4,1]  1.3120296151257418e-01
    x[4,12]   findWorstP[4,2]  1.3120296151257418e-01
    x[4,12]   findWorstP[4,3]  1.3120296151257418e-01
    MARKER    'MARKER'                 'INTEND'
RHS
    RHS1      allocateEach[1]  1
    RHS1      allocateEach[2]  1
    RHS1      allocateEach[3]  1
    RHS1      allocateEach[4]  1
    RHS1      allocateEach[5]  1
    RHS1      allocateEach[6]  1
    RHS1      allocateEach[7]  1
    RHS1      allocateEach[8]  1
    RHS1      allocateEach[9]  1
    RHS1      allocateEach[10]  1
    RHS1      allocateEach[11]  1
    RHS1      allocateEach[12]  1
    RHS1      allocateAllCash  1
BOUNDS
 UP BND1      z         1
 MI BND1      cashProportion[1]
 UP BND1      cashProportion[1]  1
 MI BND1      cashProportion[2]
 UP BND1      cashProportion[2]  1
 MI BND1      cashProportion[3]
 UP BND1      cashProportion[3]  1
 MI BND1      cashProportion[4]
 UP BND1      cashProportion[4]  1
 BV BND1      x[1,1]  
 BV BND1      x[1,2]  
 BV BND1      x[1,3]  
 BV BND1      x[1,4]  
 BV BND1      x[1,5]  
 BV BND1      x[1,6]  
 BV BND1      x[1,7]  
 BV BND1      x[1,8]  
 BV BND1      x[1,9]  
 BV BND1      x[1,10] 
 BV BND1      x[1,11] 
 BV BND1      x[1,12] 
 BV BND1      x[2,1]  
 BV BND1      x[2,2]  
 BV BND1      x[2,3]  
 BV BND1      x[2,4]  
 BV BND1      x[2,5]  
 BV BND1      x[2,6]  
 BV BND1      x[2,7]  
 BV BND1      x[2,8]  
 BV BND1      x[2,9]  
 BV BND1      x[2,10] 
 BV BND1      x[2,11] 
 BV BND1      x[2,12] 
 BV BND1      x[3,1]  
 BV BND1      x[3,2]  
 BV BND1      x[3,3]  
 BV BND1      x[3,4]  
 BV BND1      x[3,5]  
 BV BND1      x[3,6]  
 BV BND1      x[3,7]  
 BV BND1      x[3,8]  
 BV BND1      x[3,9]  
 BV BND1      x[3,10] 
 BV BND1      x[3,11] 
 BV BND1      x[3,12] 
 BV BND1      x[4,1]  
 BV BND1      x[4,2]  
 BV BND1      x[4,3]  
 BV BND1      x[4,4]  
 BV BND1      x[4,5]  
 BV BND1      x[4,6]  
 BV BND1      x[4,7]  
 BV BND1      x[4,8]  
 BV BND1      x[4,9]  
 BV BND1      x[4,10] 
 BV BND1      x[4,11] 
 BV BND1      x[4,12] 
ENDATA
